data/solutions/recovery/degenerate/intermediate/binding/degenerate_intermediate_instance38/21.sol
Elapsed time: 0.07
Upper bound: 297705.0
Planning weighted value: 14219223355.0
C[0]=297705.0
C[1]=297323.0
C[2]=296936.0
C[3]=295529.0
C[4]=294869.0
C[5]=294040.0
C[6]=290625.0
C[7]=289196.0
C[8]=288016.0
C[9]=287976.0
C[10]=287963.0
C[11]=287503.0
C[12]=276737.0
C[13]=0.0
C[14]=0.0
C[15]=0.0
y[0]=6
y[1]=3
y[2]=9
y[3]=1
y[4]=11
y[5]=0
y[6]=10
y[7]=6
y[8]=1
y[9]=7
y[10]=8
y[11]=5
y[12]=6
y[13]=11
y[14]=7
y[15]=11
y[16]=11
y[17]=2
y[18]=12
y[19]=2
y[20]=12
y[21]=7
y[22]=8
y[23]=5
y[24]=7
y[25]=3
y[26]=2
y[27]=4
y[28]=9
y[29]=1
y[30]=10
y[31]=0
y[32]=7
y[33]=9
y[34]=8
y[35]=1
y[36]=12
y[37]=6
y[38]=9
y[39]=1
y[40]=0
y[41]=2
y[42]=5
y[43]=8
y[44]=5
y[45]=3
y[46]=12
y[47]=3
y[48]=3
y[49]=6
y[50]=3
y[51]=10
y[52]=9
y[53]=7
y[54]=5
y[55]=4
y[56]=12
y[57]=10
y[58]=4
y[59]=6
y[60]=5
y[61]=2
y[62]=11
y[63]=4
y[64]=8
y[65]=0
